objective value:                                   -4
t_n_13                                              1 	(obj:-1)
t_n_1275                                            1 	(obj:-1)
t_n_1432                                            1 	(obj:-1)
t_n_1475                                            1 	(obj:-1)
